c
c Renamed file of cm42a.cnf 
c Variables are renamed according to left2right.ord 
c
c Date: Thu Apr 29 14:49:14 PDT 2004 by (jinbo)
c Host: Linux solution 2.4.18-4smp #1 SMP Thu May 2 18:32:34 EDT 2002 i686 unknown
c
c Copyright (c) 2001 Fadi A. Aloul.
c
p cnf 48 110
20 -24 0
24 -20 0
-24 33 0
29 -32 0
32 -29 0
-32 33 0
-42 -43 0
43 42 0
-43 33 0
-33 24 32 43 0
-20 -35 0
35 20 0
-35 36 0
29 -34 0
34 -29 0
-34 36 0
-42 -44 0
44 42 0
-44 36 0
-36 35 34 44 0
20 -23 0
23 -20 0
-23 31 0
-29 -30 0
30 29 0
-30 31 0
-42 -41 0
41 42 0
-41 31 0
-31 23 30 41 0
-20 -45 0
45 20 0
-45 47 0
-29 -46 0
46 29 0
-46 47 0
-42 -48 0
48 42 0
-48 47 0
-47 45 46 48 0
20 -19 0
19 -20 0
-19 18 0
29 -26 0
26 -29 0
-26 18 0
-13 -14 0
14 13 0
-14 18 0
-18 19 26 14 0
-20 -21 0
21 20 0
-21 22 0
29 -27 0
27 -29 0
-27 22 0
-13 -12 0
12 13 0
-12 22 0
-22 21 27 12 0
20 -10 0
10 -20 0
-10 8 0
-29 -11 0
11 29 0
-11 8 0
-13 -9 0
9 13 0
-9 8 0
-8 10 11 9 0
-20 -17 0
17 20 0
-17 16 0
-29 -25 0
25 29 0
-25 16 0
-13 -15 0
15 13 0
-15 16 0
-16 17 25 15 0
20 -3 0
3 -20 0
-3 1 0
-4 -2 0
2 4 0
-2 1 0
-1 3 2 0
-20 -7 0
7 20 0
-7 6 0
-4 -5 0
5 4 0
-5 6 0
-6 7 5 0
-29 -28 0
-39 -28 0
38 -28 0
28 29 39 -38 0
-28 4 0
-4 28 0
-39 -40 0
-38 -40 0
40 39 38 0
-40 42 0
-42 40 0
-42 -37 0
-38 -37 0
37 42 38 0
-37 13 0
-13 37 0
